N = 9;
H = 6;
T = 2;

avail = array3d(1..N, 1..H, 1..T, [3, 9, 0, 8, 10, 9, 5, 5, 3, 7, 2, 1, 1, 1, 9, 0, 8, 3, 0, 4, 8, 3, 10, 2, 6, 2, 5, 2, 0, 8, 8, 2, 6, 8, 3, 2, 8, 3, 0, 2, 4, 4, 8, 8, 1, 3, 10, 7, 10, 7, 9, 8, 0, 9, 5, 10, 1, 3, 0, 3, 1, 8, 1, 5, 2, 10, 2, 0, 10, 5, 8, 1, 1, 0, 7, 2, 0, 8, 4, 7, 9, 9, 7, 10, 1, 1, 6, 7, 5, 3, 10, 4, 7, 1, 7, 6, 9, 6, 5, 7, 3, 8, 0, 3, 5, 7, 4, 6]);

r = array2d(1..H, 1..T, [2, 0, 2, 2, 1, 1, 3, 5, 0, 3, 1, 2]);
